rc101_2
0 85 96 97 100 61 89 67 55 39 35 33 34 36 4 37 38 31 32 72 99 98 76 59 86 66 0 95 87 103 93 65 83 17 15 14 18 20 52 19 16 2 21 22 78 84 12 11 7 13 51 9 50 10 8 6 1 105 75 73 60 74 58 104 62 88 69 71 0 70 57 91 92 64 102 80 63 82 30 23 53 3 26 28 24 54 27 29 25 56 90 68 81 94 3 79 101 77 46 5 47 49 48 45 41 40 42 43 44 0